edges = [{1, 2}, {1, 2, 3}, {2, 3, 4}, {3, 4, 5}, {4, 5, 6}, {5, 6, 7}, {8, 6, 7}, {8, 9, 11, 7}, {8, 9, 10, 12}, {9, 10, 13}, {8, 11, 12}, {9, 11, 12, 13, 15}, {10, 12, 13, 14, 16}, {17, 13, 14}, {16, 12, 22, 15}, {13, 15, 16, 17, 23}, {14, 16, 17, 18, 24}, {17, 18, 25}, {19, 28}, {20, 21, 31}, {32, 20, 21}, {33, 23, 22, 15}, {34, 16, 22, 23, 24}, {35, 17, 23, 24, 25}, {36, 18, 24, 25, 26}, {25, 26, 37}, {40, 27, 28}, {41, 19, 27, 28, 29}, {28, 29}, {43, 30, 31}, {32, 44, 20, 30, 31}, {32, 45, 21, 31}, {33, 34, 22, 49}, {33, 34, 35, 50, 23}, {34, 35, 36, 51, 24}, {35, 36, 37, 52, 25}, {36, 37, 38, 53, 26}, {54, 37, 38}, {40, 56, 39}, {39, 40, 41, 57, 27}, {40, 41, 28}, {59, 42, 43}, {42, 43, 44, 60, 30}, {43, 44, 45, 61, 31}, {32, 44, 45, 46, 62}, {63, 45, 46, 47}, {46, 47}, {48, 49, 65}, {33, 66, 48, 49, 50}, {34, 67, 49, 50, 51}, {35, 68, 50, 51, 52}, {36, 69, 51, 52, 53}, {37, 70, 52, 53, 54}, {38, 71, 53, 54, 55}, {56, 72, 54, 55}, {39, 73, 55, 56, 57}, {40, 57, 56, 74}, {58, 59}, {42, 75, 58, 59, 60}, {43, 76, 59, 60, 61}, {44, 77, 60, 61, 62}, {45, 78, 61, 62, 63}, {62, 79, 46, 63}, {64, 65, 81}, {64, 65, 66, 48, 82}, {65, 66, 67, 49, 83}, {66, 67, 68, 50, 84}, {67, 68, 69, 51, 85}, {68, 69, 70, 52, 86}, {69, 70, 71, 53, 87}, {70, 71, 72, 54, 88}, {71, 72, 73, 55, 89}, {72, 73, 74, 56, 90}, {73, 57, 74, 91}, {59, 75, 76}, {75, 76, 77, 60, 93}, {76, 77, 78, 61, 94}, {77, 78, 79, 62, 95}, {96, 63, 78, 79}, {80, 81, 99}, {64, 100, 80, 81, 82}, {65, 101, 81, 82, 83}, {66, 102, 82, 83, 84}, {67, 103, 83, 84, 85}, {68, 104, 84, 85, 86}, {69, 105, 85, 86, 87}, {70, 106, 86, 87, 88}, {71, 107, 87, 88, 89}, {72, 108, 88, 89, 90}, {73, 109, 89, 90, 91}, {74, 110, 90, 91, 92}, {91, 92, 111}, {76, 93, 94}, {77, 113, 93, 94, 95}, {96, 78, 114, 94, 95}, {96, 97, 79, 115, 95}, {96, 97, 116}, {120, 98, 99}, {98, 99, 100, 80, 121}, {99, 100, 101, 81, 122}, {100, 101, 102, 82, 123}, {101, 102, 103, 83, 124}, {102, 103, 104, 84, 125}, {103, 104, 105, 85, 126}, {104, 105, 106, 86, 127}, {128, 105, 106, 107, 87}, {129, 106, 107, 108, 88}, {130, 107, 108, 109, 89}, {131, 108, 109, 110, 90}, {132, 109, 110, 111, 91}, {133, 110, 111, 112, 92}, {112, 134, 111}, {113, 114, 94}, {135, 113, 114, 115, 95}, {96, 136, 114, 115, 116}, {97, 137, 115, 116, 117}, {138, 116, 117, 118}, {139, 117, 118, 119}, {120, 140, 118, 119}, {98, 141, 119, 120, 121}, {99, 142, 120, 121, 122}, {100, 143, 121, 122, 123}, {101, 144, 122, 123, 124}, {102, 145, 123, 124, 125}, {103, 146, 124, 125, 126}, {104, 147, 125, 126, 127}, {128, 105, 148, 126, 127}, {128, 129, 106, 149, 127}, {128, 129, 130, 107, 150}, {129, 130, 131, 108, 151}, {130, 131, 132, 109}, {131, 132, 133, 110}, {132, 133, 134, 111}, {112, 133, 134}, {136, 114, 135}, {135, 136, 137, 115, 152}, {136, 137, 138, 116, 153}, {137, 138, 139, 117, 154}, {138, 139, 140, 118, 155}, {139, 140, 141, 119, 156}, {140, 141, 142, 120, 157}, {141, 142, 143, 121, 158}, {142, 143, 144, 122, 159}, {160, 143, 144, 145, 123}, {161, 144, 145, 146, 124}, {162, 145, 146, 147, 125}, {163, 146, 147, 148, 126}, {164, 147, 148, 149, 127}, {128, 165, 148, 149, 150}, {129, 166, 149, 150, 151}, {167, 130, 150, 151}, {152, 153, 136, 168}, {137, 169, 152, 153, 154}, {170, 138, 153, 154, 155}, {139, 171, 154, 155, 156}, {140, 172, 155, 156, 157}, {141, 173, 156, 157, 158}, {142, 174, 157, 158, 159}, {160, 143, 175, 158, 159}, {160, 161, 144, 176, 159}, {160, 161, 162, 145, 177}, {161, 162, 163, 178, 146}, {162, 163, 164, 147, 179}, {163, 164, 165, 148, 180}, {164, 165, 166, 149, 181}, {165, 166, 167, 150, 182}, {151, 183, 166, 167}, {168, 169, 193, 152}, {194, 168, 169, 170, 153}, {195, 169, 170, 171, 154}, {196, 170, 171, 172, 155}, {197, 171, 172, 173, 156}, {198, 172, 173, 174, 157}, {199, 173, 174, 175, 158}, {200, 174, 175, 176, 159}, {160, 201, 175, 176, 177}, {161, 202, 176, 177, 178}, {162, 203, 177, 178, 179}, {163, 204, 178, 179, 180}, {164, 205, 179, 180, 181}, {165, 206, 180, 181, 182}, {166, 207, 181, 182, 183}, {208, 167, 182, 183}, {184, 185, 209}, {184, 185, 186, 210}, {185, 186, 187, 211}, {212, 186, 187, 188}, {187, 188, 213}, {220, 189, 190}, {221, 189, 190}, {192, 222, 191}, {192, 193, 223, 191}, {224, 193, 194, 192, 168}, {193, 194, 195, 225, 169}, {226, 194, 195, 196, 170}, {195, 196, 197, 227, 171}, {228, 196, 197, 198, 172}, {197, 229, 198, 199, 173}, {230, 198, 200, 199, 174}, {199, 200, 201, 231, 175}, {232, 201, 202, 200, 176}, {201, 202, 203, 233, 177}, {234, 202, 203, 204, 178}, {203, 204, 205, 235, 179}, {236, 204, 205, 206, 180}, {205, 237, 206, 207, 181}, {238, 206, 208, 207, 182}, {208, 207, 239, 183}, {184, 209, 210, 241}, {209, 242, 210, 211, 185}, {210, 211, 212, 243, 186}, {211, 244, 212, 213, 187}, {212, 188, 213, 214}, {213, 214, 215}, {216, 214, 215}, {216, 245, 215}, {248, 217, 218}, {217, 218, 219, 249}, {250, 218, 219, 220}, {251, 189, 219, 220, 221}, {252, 220, 221, 190}, {223, 255, 222, 191}, {192, 224, 256, 222, 223}, {224, 193, 225, 257, 223}, {224, 225, 194, 226, 258}, {225, 226, 259, 195, 227}, {226, 227, 260, 196, 228}, {227, 228, 229, 261, 197}, {228, 229, 262, 198, 230}, {229, 230, 231, 263, 199}, {230, 231, 200, 232, 264}, {231, 232, 201, 233, 265}, {232, 233, 202, 234, 266}, {233, 234, 267, 203, 235}, {234, 235, 268, 204, 236}, {235, 236, 237, 269, 205}, {236, 237, 270, 206, 238}, {237, 238, 239, 271, 207}, {238, 239, 208, 240, 272}, {240, 241, 273, 239}, {240, 241, 242, 274, 209}, {241, 210, 275, 242, 243}, {242, 243, 244, 276, 211}, {212, 244, 277, 243}, {216, 245, 246}, {245, 246, 278}, {248, 281, 247}, {249, 247, 248, 217, 282}, {250, 248, 249, 218, 283}, {251, 249, 250, 219, 284}, {252, 250, 251, 220, 285}, {251, 252, 221, 286}, {253, 254, 287}, {288, 253, 254, 255}, {256, 289, 222, 254, 255}, {256, 257, 290, 223, 255}, {224, 257, 258, 291, 256}, {225, 258, 259, 292, 257}, {258, 226, 259, 260, 293}, {259, 227, 260, 261, 294}, {260, 228, 261, 262, 295}, {261, 229, 262, 296, 263}, {262, 230, 264, 297, 263}, {263, 264, 265, 298, 231}, {232, 265, 266, 299, 264}, {233, 266, 267, 300, 265}, {266, 234, 267, 268, 301}, {267, 235, 268, 269, 302}, {268, 236, 269, 270, 303}, {269, 237, 270, 304, 271}, {270, 238, 272, 305, 271}, {272, 273, 271, 239}, {240, 273, 274, 272}, {241, 274, 275, 306, 273}, {274, 307, 242, 275, 276}, {275, 243, 276, 277, 308}, {276, 309, 244, 277}, {310, 279, 278, 246}, {311, 278, 279}, {280, 281, 312}, {313, 247, 280, 281, 282}, {314, 248, 281, 282, 283}, {315, 249, 282, 283, 284}, {316, 250, 283, 284, 285}, {285, 251, 284, 317, 286}, {318, 252, 285, 286}, {288, 323, 253, 287}, {288, 289, 324, 254, 287}, {288, 289, 290, 325, 255}, {256, 289, 290, 291, 326}, {257, 290, 291, 292, 327}, {258, 291, 292, 293, 328}, {259, 292, 293, 294, 329}, {260, 293, 294, 295, 330}, {261, 294, 295, 296, 331}, {262, 295, 296, 297, 332}, {263, 296, 297, 298, 333}, {264, 297, 298, 299, 334}, {265, 298, 299, 300, 335}, {266, 299, 300, 301, 336}, {267, 300, 301, 302, 337}, {268, 301, 302, 303, 338}, {269, 302, 303, 304, 339}, {270, 303, 304, 305, 340}, {304, 305, 341, 271}, {307, 306, 274, 342}, {306, 275, 307, 308, 343}, {307, 308, 309, 276, 344}, {277, 308, 309}, {345, 311, 310, 278}, {279, 310, 311}, {312, 280, 313}, {281, 346, 312, 313, 314}, {282, 315, 313, 314, 347}, {315, 348, 314, 283, 316}, {284, 316, 315, 349, 317}, {318, 317, 316, 285, 350}, {351, 286, 317, 318, 319}, {320, 352, 318, 319}, {320, 321, 353, 319}, {320, 321, 322, 354}, {355, 321, 322, 323}, {322, 323, 356, 324, 287}, {288, 323, 324, 357, 325}, {289, 324, 325, 358, 326}, {290, 325, 326, 359, 327}, {291, 326, 327, 328, 360}, {292, 327, 328, 329, 361}, {293, 328, 329, 330, 362}, {294, 329, 330, 363, 331}, {295, 330, 331, 364, 332}, {296, 331, 332, 365, 333}, {297, 332, 333, 366, 334}, {298, 333, 334, 367, 335}, {299, 334, 335, 336, 368}, {300, 335, 336, 337, 369}, {301, 336, 337, 338, 370}, {302, 337, 338, 371, 339}, {303, 338, 339, 372, 340}, {304, 339, 340, 373, 341}, {305, 340, 341, 374}, {306, 375, 342, 343}, {376, 307, 342, 343, 344}, {344, 377, 308, 343}, {345, 310}, {313, 346, 347}, {314, 347, 348, 346}, {315, 378, 347, 348, 349}, {348, 379, 316, 349, 350}, {317, 380, 349, 350, 351}, {352, 318, 381, 350, 351}, {352, 353, 319, 382, 351}, {320, 353, 354, 352, 383}, {384, 321, 354, 355, 353}, {385, 322, 355, 356, 354}, {386, 355, 323, 356, 357}, {387, 356, 324, 357, 358}, {388, 357, 325, 358, 359}, {389, 358, 326, 360, 359}, {390, 359, 360, 361, 327}, {391, 328, 361, 362, 360}, {392, 329, 362, 363, 361}, {393, 330, 363, 364, 362}, {394, 363, 331, 364, 365}, {395, 364, 332, 365, 366}, {396, 365, 333, 366, 367}, {397, 366, 334, 368, 367}, {398, 367, 368, 369, 335}, {399, 336, 369, 370, 368}, {400, 337, 370, 371, 369}, {401, 338, 371, 372, 370}, {402, 371, 339, 372, 373}, {403, 372, 340, 373, 374}, {373, 404, 341, 374}, {376, 405, 342, 375}, {406, 375, 376, 377, 343}, {344, 377, 376, 407}, {378, 379, 348}, {409, 378, 379, 380, 349}, {410, 379, 380, 381, 350}, {411, 380, 381, 382, 351}, {352, 412, 381, 382, 383}, {384, 353, 413, 382, 383}, {384, 385, 354, 414, 383}, {384, 385, 386, 355, 415}, {416, 385, 386, 387, 356}, {417, 386, 387, 388, 357}, {418, 387, 388, 389, 358}, {419, 388, 389, 390, 359}, {420, 389, 390, 391, 360}, {421, 390, 391, 392, 361}, {422, 391, 392, 393, 362}, {423, 392, 393, 394, 363}, {424, 393, 394, 395, 364}, {425, 394, 395, 396, 365}, {426, 395, 396, 397, 366}, {427, 396, 397, 398, 367}, {428, 397, 398, 399, 368}, {429, 398, 399, 400, 369}, {430, 399, 400, 401, 370}, {431, 400, 401, 402, 371}, {432, 401, 402, 403, 372}, {433, 402, 403, 404, 373}, {434, 403, 404, 374}, {435, 405, 406, 375}, {436, 405, 406, 407, 376}, {437, 406, 407, 408, 377}, {408, 438, 407}, {409, 410, 379}, {410, 409, 442, 411, 380}, {411, 410, 443, 412, 381}, {412, 411, 444, 413, 382}, {414, 412, 445, 413, 383}, {384, 414, 413, 446, 415}, {416, 385, 415, 414, 447}, {416, 417, 386, 448, 415}, {416, 417, 418, 387, 449}, {417, 418, 419, 388, 450}, {418, 419, 420, 389, 451}, {419, 452, 420, 421, 390}, {420, 453, 421, 422, 391}, {421, 454, 422, 392, 423}, {422, 455, 424, 393, 423}, {423, 424, 425, 394, 456}, {424, 425, 426, 395, 457}, {425, 426, 427, 396, 458}, {426, 427, 428, 397, 459}, {427, 460, 428, 429, 398}, {428, 461, 429, 430, 399}, {429, 462, 430, 400, 431}, {430, 463, 432, 401, 431}, {431, 432, 433, 402, 464}, {432, 433, 434, 403, 465}, {433, 434, 404}, {435, 436, 405, 467}, {435, 468, 436, 437, 406}, {407, 436, 469, 437, 438}, {439, 437, 470, 438, 408}, {440, 471, 438, 439}, {440, 472, 439}, {441, 474}, {442, 443, 476, 410}, {411, 442, 443, 444, 477}, {444, 443, 412, 445, 478}, {413, 444, 445, 446, 479}, {480, 446, 445, 414, 447}, {448, 481, 447, 446, 415}, {448, 449, 482, 416, 447}, {448, 449, 450, 417, 483}, {449, 418, 450, 451, 484}, {450, 451, 452, 485, 419}, {451, 420, 452, 453, 486}, {452, 453, 454, 487, 421}, {453, 422, 454, 488, 455}, {454, 423, 456, 489, 455}, {455, 456, 457, 490, 424}, {456, 457, 458, 425, 491}, {457, 426, 458, 459, 492}, {458, 459, 460, 493, 427}, {459, 428, 460, 461, 494}, {460, 461, 462, 495, 429}, {461, 430, 462, 496, 463}, {462, 431, 464, 497, 463}, {463, 464, 465, 498, 432}, {464, 465, 433, 499}, {466, 467}, {466, 467, 500, 468, 435}, {467, 436, 501, 468, 469}, {468, 469, 502, 470, 437}, {471, 469, 438, 503, 470}, {471, 504, 470, 439, 472}, {472, 440, 471}, {473, 474, 506}, {473, 507, 441, 474, 475}, {474, 475, 508}, {512, 442, 476, 477}, {513, 443, 476, 477, 478}, {514, 444, 477, 478, 479}, {480, 515, 445, 478, 479}, {480, 481, 516, 446, 479}, {480, 481, 482, 517, 447}, {448, 481, 482, 483, 518}, {449, 482, 483, 484, 519}, {450, 483, 484, 485, 520}, {451, 484, 485, 486, 521}, {452, 485, 486, 487, 522}, {453, 486, 487, 488, 523}, {454, 487, 488, 489, 524}, {455, 488, 489, 490, 525}, {456, 489, 490, 491, 526}, {457, 490, 491, 492, 527}, {458, 491, 492, 493, 528}, {459, 492, 493, 494, 529}, {460, 493, 494, 495, 530}, {461, 494, 495, 496, 531}, {462, 495, 496, 497, 532}, {463, 496, 497, 498, 533}, {464, 497, 498, 499, 534}, {465, 498, 499, 535}, {537, 467, 500, 501}, {500, 468, 501, 502, 538}, {503, 501, 469, 502, 539}, {503, 502, 470, 504, 540}, {504, 503, 471}, {505, 506, 541}, {505, 473, 506, 507, 542}, {474, 506, 507, 508, 543}, {544, 507, 475, 508, 509}, {545, 508, 509}, {547, 510, 511}, {512, 548, 510, 511}, {512, 513, 549, 476, 511}, {512, 513, 514, 550, 477}, {513, 514, 515, 551, 478}, {514, 515, 516, 552, 479}, {480, 515, 516, 517, 553}, {481, 516, 517, 518, 554}, {482, 517, 518, 519, 555}, {483, 518, 519, 520, 556}, {484, 519, 520, 521, 557}, {485, 520, 521, 522, 558}, {486, 521, 522, 523, 559}, {487, 522, 523, 524, 560}, {488, 523, 524, 525, 561}, {489, 524, 525, 526, 562}, {490, 525, 526, 527, 563}, {491, 526, 527, 528, 564}, {492, 527, 528, 529, 565}, {528, 529, 530, 493}, {529, 530, 531, 494}, {495, 530, 531, 532, 566}, {496, 531, 532, 533, 567}, {497, 532, 533, 534, 568}, {498, 533, 534, 535, 569}, {499, 534, 535, 536, 570}, {536, 571, 535}, {537, 538, 500, 573}, {501, 537, 538, 539, 574}, {502, 538, 539, 540, 575}, {539, 540, 503}, {576, 505, 541, 542}, {577, 506, 541, 542, 543}, {544, 578, 507, 542, 543}, {544, 545, 579, 508, 543}, {544, 545, 580, 509}, {584, 546, 547}, {546, 547, 548, 585, 510}, {547, 548, 549, 586, 511}, {512, 548, 549, 550, 587}, {513, 549, 550, 551, 588}, {514, 550, 551, 552, 589}, {515, 551, 552, 553, 590}, {516, 552, 553, 554, 591}, {517, 553, 554, 555, 592}, {518, 554, 555, 556, 593}, {519, 555, 556, 557, 594}, {520, 556, 557, 558, 595}, {521, 557, 558, 559, 596}, {522, 558, 559, 560, 597}, {523, 559, 560, 561, 598}, {524, 560, 561, 562, 599}, {525, 561, 562, 563, 600}, {526, 562, 563, 564, 601}, {527, 563, 564, 565, 602}, {528, 603, 564, 565}, {531, 604, 566, 567}, {532, 566, 567, 568, 605}, {533, 567, 568, 569, 606}, {534, 568, 569, 570, 607}, {608, 535, 569, 570, 571}, {609, 536, 570, 571, 572}, {610, 571, 572}, {537, 612, 573, 574}, {613, 538, 573, 574, 575}, {539, 574, 575}, {576, 577, 541, 614}, {576, 577, 578, 615, 542}, {577, 578, 579, 616, 543}, {544, 578, 579, 580, 617}, {545, 579, 580, 581, 618}, {619, 580, 581}, {622, 582, 583}, {584, 623, 582, 583}, {546, 583, 584, 585, 624}, {547, 584, 585, 586, 625}, {548, 585, 586, 587, 626}, {549, 586, 587, 588, 627}, {550, 587, 588, 589, 628}, {551, 588, 589, 590, 629}, {552, 589, 590, 591, 630}, {553, 590, 591, 592, 631}, {554, 591, 592, 593, 632}, {555, 592, 593, 594, 633}, {556, 593, 594, 595, 634}, {557, 594, 595, 596, 635}, {558, 595, 596, 597, 636}, {559, 596, 597, 598, 637}, {560, 597, 598, 599, 638}, {561, 598, 599, 600, 639}, {640, 562, 599, 600, 601}, {641, 563, 600, 601, 602}, {642, 564, 601, 602, 603}, {602, 603, 565}, {604, 605, 566}, {643, 567, 604, 605, 606}, {644, 568, 605, 606, 607}, {608, 645, 569, 606, 607}, {608, 609, 646, 570, 607}, {608, 609, 610, 647, 571}, {609, 610, 611, 648, 572}, {649, 610, 611, 612}, {611, 612, 613, 650, 573}, {612, 613, 574}, {576, 614, 615}, {577, 614, 615, 616, 651}, {578, 615, 616, 617, 652}, {579, 616, 617, 618, 653}, {580, 617, 618, 619, 654}, {581, 618, 619, 620, 655}, {656, 619, 620, 621}, {657, 620, 621, 622}, {582, 621, 622, 623, 658}, {583, 622, 623, 624, 659}, {584, 623, 624, 625, 660}, {585, 624, 625, 626, 661}, {586, 625, 626, 627, 662}, {587, 626, 627, 628, 663}, {588, 627, 628, 629, 664}, {589, 628, 629, 630, 665}, {590, 629, 630, 631, 666}, {591, 630, 631, 632, 667}, {592, 631, 632, 633, 668}, {593, 632, 633, 634, 669}, {594, 633, 634, 635, 670}, {595, 634, 635, 636, 671}, {672, 596, 635, 636, 637}, {673, 597, 636, 637, 638}, {674, 598, 637, 638, 639}, {640, 675, 599, 638, 639}, {640, 641, 676, 600, 639}, {601, 641, 642, 640}, {641, 642, 602}, {643, 644, 605}, {643, 644, 645, 606}, {644, 677, 645, 646, 607}, {608, 645, 678, 646, 647}, {609, 646, 679, 648, 647}, {610, 647, 648, 649, 680}, {611, 648, 649, 650, 681}, {649, 650, 612}, {651, 652, 615}, {616, 682, 651, 652, 653}, {617, 683, 652, 653, 654}, {618, 684, 653, 654, 655}, {619, 685, 654, 655, 656}, {620, 686, 655, 656, 657}, {621, 687, 656, 657, 658}, {622, 688, 657, 658, 659}, {623, 689, 658, 659, 660}, {624, 690, 659, 660, 661}, {625, 691, 660, 661, 662}, {626, 692, 661, 662, 663}, {627, 693, 662, 663, 664}, {628, 694, 663, 664, 665}, {629, 695, 664, 665, 666}, {630, 696, 665, 666, 667}, {631, 697, 666, 667, 668}, {632, 698, 667, 668, 669}, {633, 699, 668, 669, 670}, {634, 700, 669, 670, 671}, {672, 635, 701, 670, 671}, {672, 673, 636, 702, 671}, {672, 673, 674, 637, 703}, {704, 673, 674, 675, 638}, {705, 674, 675, 676, 639}, {640, 706, 675, 676}, {707, 678, 677, 645}, {708, 677, 646, 678, 679}, {709, 678, 647, 680, 679}, {710, 679, 680, 681, 648}, {680, 681, 649}, {682, 683, 652}, {711, 682, 683, 684, 653}, {712, 683, 684, 685, 654}, {713, 684, 685, 686, 655}, {714, 685, 686, 687, 656}, {715, 686, 687, 688, 657}, {716, 687, 688, 689, 658}, {717, 688, 689, 690, 659}, {718, 689, 690, 691, 660}, {719, 690, 691, 692, 661}, {720, 691, 692, 693, 662}, {721, 692, 693, 694, 663}, {722, 693, 694, 695, 664}, {723, 694, 695, 696, 665}, {724, 695, 696, 697, 666}, {725, 696, 697, 698, 667}, {726, 697, 698, 699, 668}, {727, 698, 699, 700, 669}, {728, 699, 700, 701, 670}, {729, 700, 701, 702, 671}, {672, 730, 701, 702, 703}, {704, 673, 731, 702, 703}, {704, 705, 674, 732, 703}, {704, 705, 706, 675, 733}, {705, 706, 676, 734}, {736, 707, 708, 677}, {737, 707, 708, 709, 678}, {738, 708, 709, 710, 679}, {680, 709, 710}, {712, 683, 711}, {739, 711, 712, 713, 684}, {740, 712, 713, 714, 685}, {741, 713, 714, 715, 686}, {742, 714, 715, 716, 687}, {743, 715, 716, 717, 688}, {744, 716, 717, 718, 689}, {745, 717, 718, 719, 690}, {746, 718, 719, 720, 691}, {747, 719, 720, 721, 692}, {748, 720, 721, 722, 693}, {749, 721, 722, 723, 694}, {750, 722, 723, 724, 695}, {751, 723, 724, 725, 696}, {752, 724, 725, 726, 697}, {753, 725, 726, 727, 698}, {754, 726, 727, 728, 699}, {755, 727, 728, 729, 700}, {756, 728, 729, 730, 701}, {757, 729, 730, 731, 702}, {758, 730, 731, 732, 703}, {704, 759, 731, 732, 733}, {705, 760, 732, 733, 734}, {761, 706, 733, 734}, {736, 765, 735}, {736, 737, 707, 766, 735}, {736, 737, 738, 708}, {737, 738, 709}, {712, 739, 740}, {739, 740, 741, 713, 767}, {768, 740, 741, 742, 714}, {769, 741, 742, 743, 715}, {770, 742, 743, 744, 716}, {771, 743, 744, 745, 717}, {772, 744, 745, 746, 718}, {773, 745, 746, 747, 719}, {774, 746, 747, 748, 720}, {775, 747, 748, 749, 721}, {776, 748, 749, 750, 722}, {777, 749, 750, 751, 723}, {778, 750, 751, 752, 724}, {779, 751, 752, 753, 725}, {780, 752, 753, 754, 726}, {781, 753, 754, 755, 727}, {782, 754, 755, 756, 728}, {783, 755, 756, 757, 729}, {784, 756, 757, 758, 730}, {785, 757, 758, 759, 731}, {786, 758, 759, 760, 732}, {787, 759, 760, 761, 733}, {788, 760, 761, 762, 734}, {761, 762, 763, 789}, {762, 763, 790}, {795, 764, 765}, {764, 796, 765, 766, 735}, {736, 765, 766}, {768, 740, 767}, {768, 769, 741, 797, 767}, {768, 769, 770, 742, 798}, {769, 770, 771, 743, 799}, {800, 770, 771, 772, 744}, {801, 771, 772, 773, 745}, {802, 772, 773, 774, 746}, {803, 773, 774, 775, 747}, {804, 774, 775, 776, 748}, {805, 775, 776, 777, 749}, {806, 776, 777, 778, 750}, {807, 777, 778, 779, 751}, {808, 778, 779, 780, 752}, {809, 779, 780, 781, 753}, {810, 780, 781, 782, 754}, {811, 781, 782, 783, 755}, {784, 756, 782, 783}, {784, 785, 757, 783}, {812, 784, 785, 786, 758}, {813, 785, 786, 787, 759}, {814, 786, 787, 788, 760}, {815, 787, 788, 789, 761}, {816, 788, 789, 790, 762}, {817, 789, 790, 791, 763}, {792, 818, 790, 791}, {792, 793, 819, 791}, {792, 793, 794, 820}, {793, 794, 795, 821}, {796, 822, 794, 795, 764}, {795, 796, 765}, {768, 797, 798}, {769, 823, 797, 798, 799}, {800, 770, 824, 798, 799}, {800, 801, 771, 825, 799}, {800, 801, 802, 772, 826}, {801, 802, 803, 773, 827}, {802, 803, 804, 774, 828}, {803, 804, 805, 775, 829}, {804, 805, 806, 776, 830}, {805, 806, 807, 777, 831}, {832, 806, 807, 808, 778}, {833, 807, 808, 809, 779}, {834, 808, 809, 810, 780}, {835, 809, 810, 811, 781}, {810, 811, 836, 782}, {785, 812, 813}, {837, 812, 813, 814, 786}, {838, 813, 814, 815, 787}, {839, 814, 815, 816, 788}, {840, 815, 816, 817, 789}, {841, 816, 817, 818, 790}, {842, 817, 818, 819, 791}, {843, 818, 819, 820, 792}, {844, 819, 820, 821, 793}, {845, 820, 821, 822, 794}, {795, 821, 822}, {824, 798, 823}, {846, 823, 824, 825, 799}, {800, 847, 824, 825, 826}, {801, 848, 825, 826, 827}, {802, 849, 826, 827, 828}, {803, 850, 827, 828, 829}, {804, 851, 828, 829, 830}, {805, 852, 829, 830, 831}, {832, 806, 853, 830, 831}, {832, 833, 807, 854, 831}, {832, 833, 834, 808, 855}, {833, 834, 835, 809, 856}, {834, 835, 836, 810, 857}, {835, 811, 836}, {858, 813, 837, 838}, {837, 838, 839, 814, 859}, {838, 839, 840, 815, 860}, {839, 840, 841, 816, 861}, {840, 841, 842, 817, 862}, {841, 842, 843, 818, 863}, {864, 842, 843, 844, 819}, {865, 843, 844, 845, 820}, {821, 844, 845}, {824, 846, 847}, {866, 846, 847, 848, 825}, {867, 847, 848, 849, 826}, {868, 848, 849, 850, 827}, {869, 849, 850, 851, 828}, {870, 850, 851, 852, 829}, {871, 851, 852, 853, 830}, {872, 852, 853, 854, 831}, {832, 873, 853, 854, 855}, {833, 874, 854, 855, 856}, {856, 857, 834, 855}, {856, 857, 835}, {875, 858, 859, 837}, {838, 876, 858, 859, 860}, {839, 877, 859, 860, 861}, {840, 878, 860, 861, 862}, {841, 879, 861, 862, 863}, {864, 842, 880, 862, 863}, {864, 865, 843, 881, 863}, {864, 865, 844}, {866, 867, 847}, {866, 867, 868, 848, 882}, {867, 868, 869, 849, 883}, {868, 869, 870, 850, 884}, {869, 870, 871, 851, 885}, {870, 871, 872, 852, 886}, {871, 872, 873, 853, 887}, {872, 873, 874, 854, 888}, {873, 874, 889, 855}, {858, 875, 876}, {875, 876, 877, 890, 859}, {876, 877, 878, 891, 860}, {877, 878, 879, 892, 861}, {878, 879, 880, 893, 862}, {879, 880, 881, 894, 863}, {864, 881, 880}, {883, 882, 867}, {868, 882, 883, 884, 895}, {896, 869, 883, 884, 885}, {897, 870, 884, 885, 886}, {898, 871, 885, 886, 887}, {899, 872, 886, 887, 888}, {900, 873, 887, 888, 889}, {888, 889, 874, 901}, {904, 890, 891, 876}, {905, 877, 890, 891, 892}, {906, 878, 891, 892, 893}, {907, 879, 892, 893, 894}, {880, 893, 894}, {896, 883, 895}, {896, 897, 908, 884, 895}, {896, 897, 898, 909, 885}, {897, 898, 899, 910, 886}, {898, 899, 900, 911, 887}, {899, 900, 901, 912, 888}, {900, 901, 902, 913, 889}, {914, 901, 902, 903}, {915, 902, 903}, {904, 905, 890, 917}, {904, 905, 906, 918, 891}, {905, 906, 907, 919, 892}, {906, 907, 893}, {896, 908, 909}, {897, 908, 909, 910, 920}, {898, 909, 910, 911, 921}, {899, 910, 911, 912, 922}, {900, 911, 912, 913, 923}, {901, 912, 913, 914, 924}, {902, 913, 914, 915, 925}, {903, 914, 915, 916, 926}, {915, 916, 927}, {904, 932, 917, 918}, {933, 905, 917, 918, 919}, {906, 918, 919}, {920, 921, 909}, {934, 910, 920, 921, 922}, {935, 911, 921, 922, 923}, {936, 912, 922, 923, 924}, {937, 913, 923, 924, 925}, {938, 914, 924, 925, 926}, {939, 915, 925, 926, 927}, {928, 940, 916, 926, 927}, {928, 929, 941, 927}, {928, 929, 930, 942}, {929, 930, 931, 943}, {944, 930, 931, 932}, {931, 932, 933, 945, 917}, {932, 933, 918}, {921, 934, 935}, {934, 935, 936, 946, 922}, {935, 936, 937, 947, 923}, {936, 937, 938, 948, 924}, {937, 938, 939, 949, 925}, {938, 939, 940, 950, 926}, {939, 940, 941, 951, 927}, {928, 940, 941, 942, 952}, {929, 941, 942, 943, 953}, {930, 942, 943, 944, 954}, {931, 943, 944, 945, 955}, {944, 945, 932}, {946, 947, 935}, {936, 946, 947, 948, 956}, {937, 947, 948, 949, 957}, {938, 948, 949, 950, 958}, {939, 949, 950, 951, 959}, {960, 940, 950, 951, 952}, {961, 941, 951, 952, 953}, {962, 942, 952, 953, 954}, {963, 943, 953, 954, 955}, {944, 954, 955}, {947, 956, 957}, {964, 948, 956, 957, 958}, {965, 949, 957, 958, 959}, {960, 966, 950, 958, 959}, {960, 961, 967, 951, 959}, {960, 961, 962, 968, 952}, {961, 962, 963, 969, 953}, {962, 954, 963}, {965, 964, 957}, {964, 965, 966, 970, 958}, {965, 966, 967, 971, 959}, {960, 966, 967, 968, 972}, {961, 967, 968, 969, 973}, {968, 969, 962}, {970, 971, 965}, {970, 971, 972, 966}, {971, 972, 973, 967}, {968, 972, 973}];
input = [|451, 197|174, 369|544, 508|52, 51|778, 357|86, 177|489, 602|775, 803|741, 659|701, 522|535, 372|675, 460|568, 534|292, 329|924, 941|63, 97|28, 55|169, 113|814, 862|797, 687|];
V = 973;
A = 20;
E = 1757;

maxTime = 18